NAME : portgen-23-3
COMMENT : portgen N=23, seed=3
TYPE : TSP
DIMENSION : 23
EDGE_WEIGHT_TYPE : EUC_2D
NODE_COORD_SECTION
1 116306 899817
2 155869 626378
3 774407 95279
4 168940 361549
5 947105 49793
6 984224 733089
7 397673 785436
8 726424 426747
9 509927 534698
10 121542 558350
11 204748 623463
12 135814 22783
13 72553 185731
14 469754 241978
15 732577 703750
16 251120 68979
17 156127 277535
18 360563 593607
19 135119 642978
20 823781 431278
21 92035 317611
22 715682 616855
23 966456 331860
